p tw 777 821
1 2
2 113
3 14
4 752
5 6
6 7
7 8
8 9
9 10
10 11
11 12
11 15
12 13
12 15
13 15
13 35
14 25
15 16
16 17
17 18
17 22
18 19
19 20
20 21
21 22
22 23
23 24
23 33
24 26
25 36
25 47
26 27
27 28
27 30
28 29
29 33
30 31
31 32
31 33
32 33
33 34
34 752
35 37
36 752
37 38
38 39
38 44
39 40
39 41
40 752
41 42
42 43
42 44
43 44
44 45
45 46
46 48
46 154
47 58
48 49
49 50
50 51
51 52
52 53
53 54
54 55
55 56
56 57
57 59
58 69
59 60
60 61
61 62
62 63
63 64
64 65
64 73
65 66
65 68
66 67
67 71
68 70
69 80
69 91
70 71
71 72
72 752
73 74
74 75
75 76
75 85
76 77
77 78
77 81
78 79
79 83
80 752
81 82
82 83
83 84
84 752
85 86
86 87
87 88
88 89
89 90
90 92
91 102
92 93
93 94
94 95
95 96
96 97
97 98
98 99
99 100
100 101
101 103
102 114
103 104
104 105
105 106
106 107
107 108
108 109
109 110
110 111
111 112
112 115
113 224
114 125
114 147
115 116
116 117
117 118
118 119
119 120
120 121
121 122
122 123
123 124
124 126
125 136
126 127
127 128
128 129
129 130
130 131
131 132
132 133
133 134
134 135
135 137
136 147
136 202
137 138
138 139
139 140
140 141
141 142
142 143
143 144
144 145
145 146
146 148
147 158
148 149
149 150
150 151
151 152
152 153
153 470
154 155
155 156
156 157
157 159
157 170
158 169
159 160
160 161
161 162
162 163
163 164
164 165
165 166
166 167
167 168
168 170
169 180
170 171
171 172
172 173
173 174
174 175
175 176
176 177
177 178
177 181
178 179
179 190
180 191
181 182
182 183
183 184
183 186
184 185
185 190
186 187
187 188
188 189
189 190
190 192
191 752
192 193
193 194
194 195
195 196
196 197
197 198
198 199
199 200
200 201
201 203
202 213
203 204
204 205
205 206
206 207
207 208
208 209
209 210
210 211
211 212
212 214
213 225
214 215
215 216
216 217
217 218
218 219
219 220
220 221
221 222
222 223
223 226
224 335
225 236
226 227
227 228
228 229
229 230
230 231
231 232
232 233
233 234
234 235
235 237
236 247
236 435
237 238
238 239
239 240
240 241
241 242
242 243
243 244
244 245
245 246
246 248
247 258
248 249
249 250
250 251
251 252
252 253
253 254
254 255
255 256
256 257
257 259
258 269
258 291
259 260
260 261
261 262
262 263
263 264
264 265
265 266
266 267
267 268
268 270
269 280
270 271
271 272
272 273
273 274
274 275
275 276
276 277
277 278
278 279
279 281
280 435
281 282
282 283
283 284
284 285
285 286
286 287
287 288
288 289
289 290
290 292
291 302
292 293
293 294
294 295
295 296
296 297
297 298
298 299
299 300
300 301
301 303
302 313
303 304
304 305
305 306
306 307
307 308
308 309
309 310
310 311
311 312
312 314
313 324
313 435
314 315
315 316
316 317
317 318
318 319
319 320
320 321
321 322
322 323
323 325
324 336
325 326
326 327
327 328
328 329
329 330
330 331
331 332
332 333
333 334
334 337
335 446
336 347
337 338
338 339
339 340
340 341
341 342
342 343
343 344
344 345
345 346
346 348
347 358
348 349
349 350
350 351
351 352
352 353
353 354
354 355
355 356
356 357
357 359
358 369
359 360
360 361
361 362
362 363
363 364
364 365
365 366
366 367
367 368
368 370
369 380
370 371
371 372
372 373
373 374
374 375
375 376
376 377
377 378
378 379
379 381
380 391
381 382
382 383
383 384
384 385
385 386
386 387
387 388
388 389
389 390
390 392
391 402
392 393
393 394
394 395
395 396
396 397
397 398
398 399
399 400
400 401
401 403
402 413
402 435
403 404
404 405
405 406
406 407
407 408
408 409
409 410
410 411
411 412
412 414
413 424
414 415
415 416
416 417
417 418
418 419
419 420
420 421
421 422
422 423
423 425
424 435
425 426
426 427
427 428
428 429
429 430
430 431
431 432
432 433
433 434
434 436
435 447
436 437
437 438
438 439
439 440
440 441
441 442
442 443
443 444
444 445
445 448
446 557
447 458
448 449
449 450
450 451
451 452
452 453
453 454
454 455
455 456
456 457
457 459
458 469
459 460
460 461
461 462
462 463
463 464
464 465
465 466
466 467
467 468
468 470
469 480
470 471
471 472
472 473
473 474
474 475
475 476
476 477
477 478
478 479
479 481
480 491
480 713
481 482
482 483
483 484
484 485
485 486
486 487
487 488
488 489
489 490
490 492
491 502
491 513
492 493
493 494
494 495
495 496
496 497
497 498
498 499
499 500
500 501
501 503
502 752
503 504
504 505
505 506
506 507
507 508
508 509
509 510
510 511
511 512
512 514
513 524
514 515
515 516
516 517
517 518
517 519
518 752
519 520
520 521
521 522
522 523
523 525
524 535
525 526
526 527
526 537
527 528
528 529
529 530
530 531
531 532
532 533
533 534
534 536
534 560
535 546
535 624
536 752
537 538
538 539
539 540
540 541
541 542
542 543
543 544
544 545
545 547
546 558
546 580
547 548
547 549
548 752
549 550
550 551
551 552
552 553
552 560
553 554
554 555
555 556
556 559
556 560
557 668
558 569
559 752
560 561
561 562
562 563
563 564
564 565
565 566
566 567
566 598
567 568
568 570
569 602
570 571
571 572
572 573
573 574
574 575
575 576
576 577
577 578
578 579
579 581
580 591
581 582
582 583
583 584
584 585
585 586
586 587
587 588
588 589
589 590
590 592
590 593
591 602
592 593
593 594
594 595
595 596
596 597
597 598
598 599
599 600
600 601
601 603
602 613
603 604
604 605
605 606
606 607
607 608
608 609
609 610
610 611
611 612
612 614
613 752
614 615
615 616
616 617
617 618
618 619
619 620
620 621
621 622
622 623
623 625
624 635
625 626
626 627
627 628
628 629
629 630
630 631
631 632
632 633
633 634
634 636
635 646
635 669
636 637
637 638
638 639
639 640
640 641
641 642
642 643
643 644
644 645
645 647
646 657
647 648
648 649
649 650
650 651
651 652
652 653
653 654
654 655
655 656
656 658
657 691
658 659
659 660
660 661
661 662
662 663
663 664
664 665
665 666
666 667
667 670
668 756
669 680
670 671
671 672
672 673
673 674
674 675
675 676
676 677
677 678
678 679
679 681
680 691
681 682
682 683
683 684
684 685
685 686
686 687
687 688
688 689
689 690
690 692
691 702
692 693
693 694
694 695
695 696
696 697
697 698
698 699
699 700
700 701
701 703
702 752
703 704
704 705
705 706
706 707
707 708
708 709
709 710
710 711
711 712
712 714
713 724
714 715
715 716
716 717
717 718
718 719
719 720
720 721
721 722
722 723
723 725
724 735
725 726
726 727
727 728
728 729
729 730
730 731
731 732
732 733
733 734
733 741
734 736
735 746
735 764
736 737
737 738
738 739
739 740
740 747
741 742
742 743
743 744
744 745
745 747
746 754
746 757
747 748
748 749
749 750
750 751
751 752
752 753
754 755
755 762
756 767
757 758
758 759
759 760
760 761
761 762
762 763
763 752
764 765
765 766
766 768
766 772
767 3
768 769
769 770
770 771
771 752
772 773
773 774
774 775
774 5
775 776
775 5
776 777
777 4
